\ Model positive_constraints_ab
\ LP format - for model browsing. Use MPS format to capture full model detail.
Minimize
  - 0.6 qq1 - 6 ab1 - 0.6 qq2 - 4 ab2 - 0.6 qq3 - 2 ab3 - 0.6 qq4 - 4 ab4
   - 0.6 qq5 - 6 ab5 - 0.3 qq6 - 4 ab6 - 0.3 qq7 - 2 ab7 - 0.3 qq8 - 2 ab8
   - 0.3 qq9 - 6 ab9 - 0.3 qq10 - 4 ab10 - 0.12 qq11 - 2 ab11 - 0.12 qq12
   - 4 ab12 - 0.12 qq13 - 2 ab13 - 0.12 qq14 - 2 ab14 - 0.12 qq15 - 4 ab15
   - 0.9 qq16 - 8 ab16 - 0.9 qq17 - 6 ab17 - 0.9 qq18 - 10 ab18 - 0.9 qq19
   - 6 ab19 - 0.9 qq20 - 4 ab20 - 1.2 qq21 - 8 ab21 - 1.2 qq22 - 10 ab22
   - 1.2 qq23 - 6 ab23 - 1.2 qq24 - 8 ab24 - 1.2 qq25 - 6 ab25 - 0.06 qq26
   - 2 ab26 - 0.06 qq27 - 4 ab27 - 0.06 qq28 - 2 ab28 - 0.06 qq29 - 2 ab29
   - 0.06 qq30 - 4 ab30 + 16.6845703125 ppp + 5336 Constant + [ - 6 ab1 ^2
   - 12 ab2 ^2 - 18 ab3 ^2 - 12 ab4 ^2 - 6 ab5 ^2 - 18 ab6 ^2 - 12 ab7 ^2
   - 6 ab8 ^2 - 6 ab9 ^2 - 6 ab10 ^2 - 6 ab11 ^2 - 6 ab12 ^2 - 12 ab13 ^2
   - 6 ab14 ^2 - 12 ab15 ^2 - 6 ab16 ^2 - 12 ab17 ^2 - 6 ab18 ^2
   - 18 ab19 ^2 - 24 ab20 ^2 - 6 ab21 ^2 - 12 ab22 ^2 - 12 ab23 ^2
   - 18 ab24 ^2 - 24 ab25 ^2 - 6 ab26 ^2 - 6 ab27 ^2 - 12 ab28 ^2
   - 6 ab29 ^2 - 12 ab30 ^2 ] / 2 
Subject To
 R0: qq1 - ab1 >= 0
 R1: ab1 >= 0
 R2: qq2 - ab2 >= 0
 R3: ab2 >= 0
 R4: qq3 - ab3 >= 0
 R5: ab3 >= 0
 R6: qq4 - ab4 >= 0
 R7: ab4 >= 0
 R8: qq5 - ab5 >= 0
 R9: ab5 >= 0
 R10: qq6 - ab6 >= 0
 R11: ab6 >= 0
 R12: qq7 - ab7 >= 0
 R13: ab7 >= 0
 R14: qq8 - ab8 >= 0
 R15: ab8 >= 0
 R16: qq9 - ab9 >= 0
 R17: ab9 >= 0
 R18: qq10 - ab10 >= 0
 R19: ab10 >= 0
 R20: qq11 - ab11 >= 0
 R21: ab11 >= 0
 R22: qq12 - ab12 >= 0
 R23: ab12 >= 0
 R24: qq13 - ab13 >= 0
 R25: ab13 >= 0
 R26: qq14 - ab14 >= 0
 R27: ab14 >= 0
 R28: qq15 - ab15 >= 0
 R29: ab15 >= 0
 R30: qq16 - ab16 >= 0
 R31: ab16 >= 0
 R32: qq17 - ab17 >= 0
 R33: ab17 >= 0
 R34: qq18 - ab18 >= 0
 R35: ab18 >= 0
 R36: qq19 - ab19 >= 0
 R37: ab19 >= 0
 R38: qq20 - ab20 >= 0
 R39: ab20 >= 0
 R40: qq21 - ab21 >= 0
 R41: ab21 >= 0
 R42: qq22 - ab22 >= 0
 R43: ab22 >= 0
 R44: qq23 - ab23 >= 0
 R45: ab23 >= 0
 R46: qq24 - ab24 >= 0
 R47: ab24 >= 0
 R48: qq25 - ab25 >= 0
 R49: ab25 >= 0
 R50: qq26 - ab26 >= 0
 R51: ab26 >= 0
 R52: qq27 - ab27 >= 0
 R53: ab27 >= 0
 R54: qq28 - ab28 >= 0
 R55: ab28 >= 0
 R56: qq29 - ab29 >= 0
 R57: ab29 >= 0
 R58: qq30 - ab30 >= 0
 R59: ab30 >= 0
 R60: - 0.2 qq1 - 0.1 qq2 - 0.1 qq3 - 0.1 qq4 - 0.1 qq5 - 0.203125 ppp
   >= -200
 R61: - 0.1 qq1 - 0.2 qq2 - 0.1 qq3 - 0.1 qq4 - 0.1 qq5 - 0.203125 ppp
   >= -200
 R62: - 0.1 qq1 - 0.1 qq2 - 0.2 qq3 - 0.1 qq4 - 0.1 qq5 - 0.203125 ppp
   >= -200
 R63: - 0.1 qq1 - 0.1 qq2 - 0.1 qq3 - 0.2 qq4 - 0.1 qq5 - 0.203125 ppp
   >= -200
 R64: - 0.1 qq1 - 0.1 qq2 - 0.1 qq3 - 0.1 qq4 - 0.2 qq5 - 0.203125 ppp
   >= -200
 R65: - 0.1 qq6 - 0.05 qq7 - 0.05 qq8 - 0.05 qq9 - 0.05 qq10
   - 0.1533203125 ppp >= -150
 R66: - 0.05 qq6 - 0.1 qq7 - 0.05 qq8 - 0.05 qq9 - 0.05 qq10
   - 0.1533203125 ppp >= -150
 R67: - 0.05 qq6 - 0.05 qq7 - 0.1 qq8 - 0.05 qq9 - 0.05 qq10
   - 0.1533203125 ppp >= -150
 R68: - 0.05 qq6 - 0.05 qq7 - 0.05 qq8 - 0.1 qq9 - 0.05 qq10
   - 0.1533203125 ppp >= -150
 R69: - 0.05 qq6 - 0.05 qq7 - 0.05 qq8 - 0.05 qq9 - 0.1 qq10
   - 0.1533203125 ppp >= -150
 R70: - 0.04 qq11 - 0.02 qq12 - 0.02 qq13 - 0.02 qq14 - 0.02 qq15
   - 0.9501953125 ppp >= -100
 R71: - 0.02 qq11 - 0.04 qq12 - 0.02 qq13 - 0.02 qq14 - 0.02 qq15
   - 0.9501953125 ppp >= -100
 R72: - 0.02 qq11 - 0.02 qq12 - 0.04 qq13 - 0.02 qq14 - 0.02 qq15
   - 0.9501953125 ppp >= -100
 R73: - 0.02 qq11 - 0.02 qq12 - 0.02 qq13 - 0.04 qq14 - 0.02 qq15
   - 0.9501953125 ppp >= -100
 R74: - 0.02 qq11 - 0.02 qq12 - 0.02 qq13 - 0.02 qq14 - 0.04 qq15
   - 0.9501953125 ppp >= -100
 R75: - 0.3 qq16 - 0.15 qq17 - 0.15 qq18 - 0.15 qq19 - 0.15 qq20
   - 0.103515625 ppp >= -250
 R76: - 0.15 qq16 - 0.3 qq17 - 0.15 qq18 - 0.15 qq19 - 0.15 qq20
   - 0.103515625 ppp >= -250
 R77: - 0.15 qq16 - 0.15 qq17 - 0.3 qq18 - 0.15 qq19 - 0.15 qq20
   - 0.103515625 ppp >= -250
 R78: - 0.15 qq16 - 0.15 qq17 - 0.15 qq18 - 0.3 qq19 - 0.15 qq20
   - 0.103515625 ppp >= -250
 R79: - 0.15 qq16 - 0.15 qq17 - 0.15 qq18 - 0.15 qq19 - 0.3 qq20
   - 0.103515625 ppp >= -250
 R80: - 0.4 qq21 - 0.2 qq22 - 0.2 qq23 - 0.2 qq24 - 0.2 qq25
   - 0.2529296875 ppp >= -300
 R81: - 0.2 qq21 - 0.4 qq22 - 0.2 qq23 - 0.2 qq24 - 0.2 qq25
   - 0.2529296875 ppp >= -300
 R82: - 0.2 qq21 - 0.2 qq22 - 0.4 qq23 - 0.2 qq24 - 0.2 qq25
   - 0.2529296875 ppp >= -300
 R83: - 0.2 qq21 - 0.2 qq22 - 0.2 qq23 - 0.4 qq24 - 0.2 qq25
   - 0.2529296875 ppp >= -300
 R84: - 0.2 qq21 - 0.2 qq22 - 0.2 qq23 - 0.2 qq24 - 0.4 qq25
   - 0.2529296875 ppp >= -300
 R85: - 0.02 qq26 - 0.01 qq27 - 0.01 qq28 - 0.01 qq29 - 0.01 qq30 - ppp
   >= -80
 R86: - 0.01 qq26 - 0.02 qq27 - 0.01 qq28 - 0.01 qq29 - 0.01 qq30 - ppp
   >= -80
 R87: - 0.01 qq26 - 0.01 qq27 - 0.02 qq28 - 0.01 qq29 - 0.01 qq30 - ppp
   >= -80
 R88: - 0.01 qq26 - 0.01 qq27 - 0.01 qq28 - 0.02 qq29 - 0.01 qq30 - ppp
   >= -80
 R89: - 0.01 qq26 - 0.01 qq27 - 0.01 qq28 - 0.01 qq29 - 0.02 qq30 - ppp
   >= -80
 R90: qq1 - ab1 + qq2 - ab2 + qq3 - ab3 + qq4 - ab4 + qq5 - ab5 + qq6 - ab6
   + qq7 - ab7 + qq8 - ab8 + qq9 - ab9 + qq10 - ab10 + qq11 - ab11 + qq12
   - ab12 + qq13 - ab13 + qq14 - ab14 + qq15 - ab15 + qq16 - ab16 + qq17
   - ab17 + qq18 - ab18 + qq19 - ab19 + qq20 - ab20 + qq21 - ab21 + qq22
   - ab22 + qq23 - ab23 + qq24 - ab24 + qq25 - ab25 + qq26 - ab26 + qq27
   - ab27 + qq28 - ab28 + qq29 - ab29 + qq30 - ab30 = 14111.1021900248
 qc0: - 6 ab1 + ppp + [ - 3 ab1 ^2 ] >= 2
 qc1: - 4 ab2 + ppp + [ - 6 ab2 ^2 ] >= 3
 qc2: - 2 ab3 + ppp + [ - 9 ab3 ^2 ] >= 4
 qc3: - 4 ab4 + ppp + [ - 6 ab4 ^2 ] >= 2
 qc4: - 6 ab5 + ppp + [ - 3 ab5 ^2 ] >= 3
 qc5: - 4 ab6 + ppp + [ - 9 ab6 ^2 ] >= 1
 qc6: - 2 ab7 + ppp + [ - 6 ab7 ^2 ] >= 2
 qc7: - 2 ab8 + ppp + [ - 3 ab8 ^2 ] >= 3
 qc8: - 6 ab9 + ppp + [ - 3 ab9 ^2 ] >= 1
 qc9: - 4 ab10 + ppp + [ - 3 ab10 ^2 ] >= 2
 qc10: - 2 ab11 + ppp + [ - 3 ab11 ^2 ] >= 1
 qc11: - 4 ab12 + ppp + [ - 3 ab12 ^2 ] >= 1
 qc12: - 2 ab13 + ppp + [ - 6 ab13 ^2 ] >= 1
 qc13: - 2 ab14 + ppp + [ - 3 ab14 ^2 ] >= 2
 qc14: - 4 ab15 + ppp + [ - 6 ab15 ^2 ] >= 1
 qc15: - 8 ab16 + ppp + [ - 3 ab16 ^2 ] >= 3
 qc16: - 6 ab17 + ppp + [ - 6 ab17 ^2 ] >= 4
 qc17: - 10 ab18 + ppp + [ - 3 ab18 ^2 ] >= 2
 qc18: - 6 ab19 + ppp + [ - 9 ab19 ^2 ] >= 3
 qc19: - 4 ab20 + ppp + [ - 12 ab20 ^2 ] >= 2
 qc20: - 8 ab21 + ppp + [ - 3 ab21 ^2 ] >= 5
 qc21: - 10 ab22 + ppp + [ - 6 ab22 ^2 ] >= 4
 qc22: - 6 ab23 + ppp + [ - 6 ab23 ^2 ] >= 3
 qc23: - 8 ab24 + ppp + [ - 9 ab24 ^2 ] >= 2
 qc24: - 6 ab25 + ppp + [ - 12 ab25 ^2 ] >= 1
 qc25: - 2 ab26 + ppp + [ - 3 ab26 ^2 ] >= 1
 qc26: - 4 ab27 + ppp + [ - 3 ab27 ^2 ] >= 1
 qc27: - 2 ab28 + ppp + [ - 6 ab28 ^2 ] >= 1
 qc28: - 2 ab29 + ppp + [ - 3 ab29 ^2 ] >= 2
 qc29: - 4 ab30 + ppp + [ - 6 ab30 ^2 ] >= 1
Bounds
 Constant = 1
End
